10 10 4

0 326 106 480 483 193 345 307 205 202 
359 0 461 175 366 283 358 470 171 277 
134 95 0 438 285 153 416 82 257 433 
123 338 392 0 279 370 448 258 353 347 
309 366 52 462 0 225 219 343 90 452 
200 59 329 428 350 0 131 121 134 441 
487 167 198 420 447 242 0 311 225 111 
466 190 170 68 449 487 70 0 410 211 
446 252 251 398 159 468 433 293 0 317 
63 364 158 455 106 482 359 232 428 0 

262.35 0 8
262.35 1 8
262.35 2 0
262.35 3 2
262.35 4 6
262.35 5 2
262.35 6 3
262.35 7 5
262.35 8 4
262.35 9 5

